25
1 2961 2973
2 314 1577
3 527 116
4 2683 1046
5 1867 746
6 2641 363
7 2035 1740
8 915 216
9 281 14
10 1057 111
11 2908 1675
12 2030 2099
13 485 1684
14 280 2650
15 709 1332
16 1229 1511
17 2005 1259
18 185 523
19 1174 1328
20 2757 1389
21 27 1197
22 2330 2607
23 2059 534
24 567 2947
25 1067 1986
